Version identifier: 20.1.0.0 | 2020-11-10 | 9bedb6d68
Tried aggregator 2 times.
MIP Presolve eliminated 1872 rows and 979 columns.
MIP Presolve modified 4500 coefficients.
Aggregator did 193 substitutions.
Reduced MIP has 2744 rows, 2143 columns, and 9000 nonzeros.
Reduced MIP has 402 binaries, 1741 generals, 0 SOSs, and 0 indicators.
Presolve time = 0.03 sec. (11.17 ticks)
Found incumbent of value 2773.000000 after 0.05 sec. (21.98 ticks)
Probing fixed 60 vars, tightened 558 bounds.
Probing time = 0.00 sec. (2.01 ticks)
Tried aggregator 2 times.
Detecting symmetries...
MIP Presolve eliminated 1170 rows and 96 columns.
MIP Presolve modified 201 coefficients.
Aggregator did 24 substitutions.
Reduced MIP has 1550 rows, 2023 columns, and 5058 nonzeros.
Reduced MIP has 592 binaries, 1431 generals, 0 SOSs, and 0 indicators.
Presolve time = 0.02 sec. (7.35 ticks)
Probing time = 0.00 sec. (0.47 ticks)
Clique table members: 125.
MIP emphasis: balance optimality and feasibility.
MIP search method: dynamic search.
Parallel mode: deterministic, using up to 24 threads.
Root relaxation solution time = 0.01 sec. (4.43 ticks)

        Nodes                                         Cuts/
   Node  Left     Objective  IInf  Best Integer    Best Bound    ItCnt     Gap

*     0+    0                         2773.0000        0.0000           100.00%
*     0+    0                           44.0000        0.0000           100.00%
      0     0        0.0000    70       44.0000        0.0000      461  100.00%
*     0+    0                           13.0000        0.0000           100.00%
      0     0        0.0000    81       13.0000      Cuts: 93      549  100.00%
      0     0        0.0000    87       13.0000     Cuts: 115      711  100.00%
*     0+    0                           11.0000        0.0000           100.00%
      0     0        cutoff             11.0000       11.0000      711    0.00%
Elapsed time = 1.21 sec. (202.21 ticks, tree = 0.01 MB, solutions = 4)

Cover cuts applied:  2
Implied bound cuts applied:  31
Mixed integer rounding cuts applied:  14
Zero-half cuts applied:  80
Lift and project cuts applied:  8
Gomory fractional cuts applied:  25

Root node processing (before b&c):
  Real time             =    1.21 sec. (202.40 ticks)
Parallel b&c, 24 threads:
  Real time             =    0.00 sec. (0.00 ticks)
  Sync time (average)   =    0.00 sec.
  Wait time (average)   =    0.00 sec.
                          ------------
Total (root+branch&cut) =    1.21 sec. (202.40 ticks)

Solution status = Optimal
Solution LB = 11
Solution UB = 11
Runtime = 1.21836 seconds
	Command being timed: "/home/min/git_repos/CS598MEBProject/CNT-ILP/build/cnt -s 2 ./output/k8_n30/simC_c1_k8_n30_u2_s2_del04.input-left.cnp"
	User time (seconds): 18.48
	System time (seconds): 0.12
	Percent of CPU this job got: 1488%
	Elapsed (wall clock) time (h:mm:ss or m:ss): 0:01.25
	Average shared text size (kbytes): 0
	Average unshared data size (kbytes): 0
	Average stack size (kbytes): 0
	Average total size (kbytes): 0
	Maximum resident set size (kbytes): 131100
	Average resident set size (kbytes): 0
	Major (requiring I/O) page faults: 0
	Minor (reclaiming a frame) page faults: 32823
	Voluntary context switches: 8925
	Involuntary context switches: 2964
	Swaps: 0
	File system inputs: 0
	File system outputs: 24
	Socket messages sent: 0
	Socket messages received: 0
	Signals delivered: 0
	Page size (bytes): 4096
	Exit status: 0
